p cnf 64 1516
1 2 3 4 5 6 7 8 9 10 11 12 13 14 15 16 0
17 18 19 20 21 22 23 24 25 26 27 28 29 30 31 32 0
33 34 35 36 37 38 39 40 41 42 43 44 45 46 47 48 0
49 50 51 52 53 54 55 56 57 58 59 60 61 62 63 64 0
-1 -2 0
-1 -3 0
-1 -4 0
-1 -5 0
-1 -6 0
-1 -7 0
-1 -8 0
-1 -9 0
-1 -10 0
-1 -11 0
-1 -12 0
-1 -13 0
-1 -14 0
-1 -15 0
-1 -16 0
-2 -3 0
-2 -4 0
-2 -5 0
-2 -6 0
-2 -7 0
-2 -8 0
-2 -9 0
-2 -10 0
-2 -11 0
-2 -12 0
-2 -13 0
-2 -14 0
-2 -15 0
-2 -16 0
-3 -4 0
-3 -5 0
-3 -6 0
-3 -7 0
-3 -8 0
-3 -9 0
-3 -10 0
-3 -11 0
-3 -12 0
-3 -13 0
-3 -14 0
-3 -15 0
-3 -16 0
-4 -5 0
-4 -6 0
-4 -7 0
-4 -8 0
-4 -9 0
-4 -10 0
-4 -11 0
-4 -12 0
-4 -13 0
-4 -14 0
-4 -15 0
-4 -16 0
-5 -6 0
-5 -7 0
-5 -8 0
-5 -9 0
-5 -10 0
-5 -11 0
-5 -12 0
-5 -13 0
-5 -14 0
-5 -15 0
-5 -16 0
-6 -7 0
-6 -8 0
-6 -9 0
-6 -10 0
-6 -11 0
-6 -12 0
-6 -13 0
-6 -14 0
-6 -15 0
-6 -16 0
-7 -8 0
-7 -9 0
-7 -10 0
-7 -11 0
-7 -12 0
-7 -13 0
-7 -14 0
-7 -15 0
-7 -16 0
-8 -9 0
-8 -10 0
-8 -11 0
-8 -12 0
-8 -13 0
-8 -14 0
-8 -15 0
-8 -16 0
-9 -10 0
-9 -11 0
-9 -12 0
-9 -13 0
-9 -14 0
-9 -15 0
-9 -16 0
-10 -11 0
-10 -12 0
-10 -13 0
-10 -14 0
-10 -15 0
-10 -16 0
-11 -12 0
-11 -13 0
-11 -14 0
-11 -15 0
-11 -16 0
-12 -13 0
-12 -14 0
-12 -15 0
-12 -16 0
-13 -14 0
-13 -15 0
-13 -16 0
-14 -15 0
-14 -16 0
-15 -16 0
-17 -18 0
-17 -19 0
-17 -20 0
-17 -21 0
-17 -22 0
-17 -23 0
-17 -24 0
-17 -25 0
-17 -26 0
-17 -27 0
-17 -28 0
-17 -29 0
-17 -30 0
-17 -31 0
-17 -32 0
-18 -19 0
-18 -20 0
-18 -21 0
-18 -22 0
-18 -23 0
-18 -24 0
-18 -25 0
-18 -26 0
-18 -27 0
-18 -28 0
-18 -29 0
-18 -30 0
-18 -31 0
-18 -32 0
-19 -20 0
-19 -21 0
-19 -22 0
-19 -23 0
-19 -24 0
-19 -25 0
-19 -26 0
-19 -27 0
-19 -28 0
-19 -29 0
-19 -30 0
-19 -31 0
-19 -32 0
-20 -21 0
-20 -22 0
-20 -23 0
-20 -24 0
-20 -25 0
-20 -26 0
-20 -27 0
-20 -28 0
-20 -29 0
-20 -30 0
-20 -31 0
-20 -32 0
-21 -22 0
-21 -23 0
-21 -24 0
-21 -25 0
-21 -26 0
-21 -27 0
-21 -28 0
-21 -29 0
-21 -30 0
-21 -31 0
-21 -32 0
-22 -23 0
-22 -24 0
-22 -25 0
-22 -26 0
-22 -27 0
-22 -28 0
-22 -29 0
-22 -30 0
-22 -31 0
-22 -32 0
-23 -24 0
-23 -25 0
-23 -26 0
-23 -27 0
-23 -28 0
-23 -29 0
-23 -30 0
-23 -31 0
-23 -32 0
-24 -25 0
-24 -26 0
-24 -27 0
-24 -28 0
-24 -29 0
-24 -30 0
-24 -31 0
-24 -32 0
-25 -26 0
-25 -27 0
-25 -28 0
-25 -29 0
-25 -30 0
-25 -31 0
-25 -32 0
-26 -27 0
-26 -28 0
-26 -29 0
-26 -30 0
-26 -31 0
-26 -32 0
-27 -28 0
-27 -29 0
-27 -30 0
-27 -31 0
-27 -32 0
-28 -29 0
-28 -30 0
-28 -31 0
-28 -32 0
-29 -30 0
-29 -31 0
-29 -32 0
-30 -31 0
-30 -32 0
-31 -32 0
-33 -34 0
-33 -35 0
-33 -36 0
-33 -37 0
-33 -38 0
-33 -39 0
-33 -40 0
-33 -41 0
-33 -42 0
-33 -43 0
-33 -44 0
-33 -45 0
-33 -46 0
-33 -47 0
-33 -48 0
-34 -35 0
-34 -36 0
-34 -37 0
-34 -38 0
-34 -39 0
-34 -40 0
-34 -41 0
-34 -42 0
-34 -43 0
-34 -44 0
-34 -45 0
-34 -46 0
-34 -47 0
-34 -48 0
-35 -36 0
-35 -37 0
-35 -38 0
-35 -39 0
-35 -40 0
-35 -41 0
-35 -42 0
-35 -43 0
-35 -44 0
-35 -45 0
-35 -46 0
-35 -47 0
-35 -48 0
-36 -37 0
-36 -38 0
-36 -39 0
-36 -40 0
-36 -41 0
-36 -42 0
-36 -43 0
-36 -44 0
-36 -45 0
-36 -46 0
-36 -47 0
-36 -48 0
-37 -38 0
-37 -39 0
-37 -40 0
-37 -41 0
-37 -42 0
-37 -43 0
-37 -44 0
-37 -45 0
-37 -46 0
-37 -47 0
-37 -48 0
-38 -39 0
-38 -40 0
-38 -41 0
-38 -42 0
-38 -43 0
-38 -44 0
-38 -45 0
-38 -46 0
-38 -47 0
-38 -48 0
-39 -40 0
-39 -41 0
-39 -42 0
-39 -43 0
-39 -44 0
-39 -45 0
-39 -46 0
-39 -47 0
-39 -48 0
-40 -41 0
-40 -42 0
-40 -43 0
-40 -44 0
-40 -45 0
-40 -46 0
-40 -47 0
-40 -48 0
-41 -42 0
-41 -43 0
-41 -44 0
-41 -45 0
-41 -46 0
-41 -47 0
-41 -48 0
-42 -43 0
-42 -44 0
-42 -45 0
-42 -46 0
-42 -47 0
-42 -48 0
-43 -44 0
-43 -45 0
-43 -46 0
-43 -47 0
-43 -48 0
-44 -45 0
-44 -46 0
-44 -47 0
-44 -48 0
-45 -46 0
-45 -47 0
-45 -48 0
-46 -47 0
-46 -48 0
-47 -48 0
-49 -50 0
-49 -51 0
-49 -52 0
-49 -53 0
-49 -54 0
-49 -55 0
-49 -56 0
-49 -57 0
-49 -58 0
-49 -59 0
-49 -60 0
-49 -61 0
-49 -62 0
-49 -63 0
-49 -64 0
-50 -51 0
-50 -52 0
-50 -53 0
-50 -54 0
-50 -55 0
-50 -56 0
-50 -57 0
-50 -58 0
-50 -59 0
-50 -60 0
-50 -61 0
-50 -62 0
-50 -63 0
-50 -64 0
-51 -52 0
-51 -53 0
-51 -54 0
-51 -55 0
-51 -56 0
-51 -57 0
-51 -58 0
-51 -59 0
-51 -60 0
-51 -61 0
-51 -62 0
-51 -63 0
-51 -64 0
-52 -53 0
-52 -54 0
-52 -55 0
-52 -56 0
-52 -57 0
-52 -58 0
-52 -59 0
-52 -60 0
-52 -61 0
-52 -62 0
-52 -63 0
-52 -64 0
-53 -54 0
-53 -55 0
-53 -56 0
-53 -57 0
-53 -58 0
-53 -59 0
-53 -60 0
-53 -61 0
-53 -62 0
-53 -63 0
-53 -64 0
-54 -55 0
-54 -56 0
-54 -57 0
-54 -58 0
-54 -59 0
-54 -60 0
-54 -61 0
-54 -62 0
-54 -63 0
-54 -64 0
-55 -56 0
-55 -57 0
-55 -58 0
-55 -59 0
-55 -60 0
-55 -61 0
-55 -62 0
-55 -63 0
-55 -64 0
-56 -57 0
-56 -58 0
-56 -59 0
-56 -60 0
-56 -61 0
-56 -62 0
-56 -63 0
-56 -64 0
-57 -58 0
-57 -59 0
-57 -60 0
-57 -61 0
-57 -62 0
-57 -63 0
-57 -64 0
-58 -59 0
-58 -60 0
-58 -61 0
-58 -62 0
-58 -63 0
-58 -64 0
-59 -60 0
-59 -61 0
-59 -62 0
-59 -63 0
-59 -64 0
-60 -61 0
-60 -62 0
-60 -63 0
-60 -64 0
-61 -62 0
-61 -63 0
-61 -64 0
-62 -63 0
-62 -64 0
-63 -64 0
-1 -17 0
-1 -21 0
-1 -25 0
-1 -29 0
-1 -33 0
-1 -37 0
-1 -41 0
-1 -45 0
-1 -49 0
-1 -53 0
-1 -57 0
-1 -61 0
-5 -17 0
-5 -21 0
-5 -25 0
-5 -29 0
-5 -33 0
-5 -37 0
-5 -41 0
-5 -45 0
-5 -49 0
-5 -53 0
-5 -57 0
-5 -61 0
-9 -17 0
-9 -21 0
-9 -25 0
-9 -29 0
-9 -33 0
-9 -37 0
-9 -41 0
-9 -45 0
-9 -49 0
-9 -53 0
-9 -57 0
-9 -61 0
-13 -17 0
-13 -21 0
-13 -25 0
-13 -29 0
-13 -33 0
-13 -37 0
-13 -41 0
-13 -45 0
-13 -49 0
-13 -53 0
-13 -57 0
-13 -61 0
-17 -33 0
-17 -37 0
-17 -41 0
-17 -45 0
-17 -49 0
-17 -53 0
-17 -57 0
-17 -61 0
-21 -33 0
-21 -37 0
-21 -41 0
-21 -45 0
-21 -49 0
-21 -53 0
-21 -57 0
-21 -61 0
-25 -33 0
-25 -37 0
-25 -41 0
-25 -45 0
-25 -49 0
-25 -53 0
-25 -57 0
-25 -61 0
-29 -33 0
-29 -37 0
-29 -41 0
-29 -45 0
-29 -49 0
-29 -53 0
-29 -57 0
-29 -61 0
-33 -49 0
-33 -53 0
-33 -57 0
-33 -61 0
-37 -49 0
-37 -53 0
-37 -57 0
-37 -61 0
-41 -49 0
-41 -53 0
-41 -57 0
-41 -61 0
-45 -49 0
-45 -53 0
-45 -57 0
-45 -61 0
-2 -18 0
-2 -22 0
-2 -26 0
-2 -30 0
-2 -34 0
-2 -38 0
-2 -42 0
-2 -46 0
-2 -50 0
-2 -54 0
-2 -58 0
-2 -62 0
-6 -18 0
-6 -22 0
-6 -26 0
-6 -30 0
-6 -34 0
-6 -38 0
-6 -42 0
-6 -46 0
-6 -50 0
-6 -54 0
-6 -58 0
-6 -62 0
-10 -18 0
-10 -22 0
-10 -26 0
-10 -30 0
-10 -34 0
-10 -38 0
-10 -42 0
-10 -46 0
-10 -50 0
-10 -54 0
-10 -58 0
-10 -62 0
-14 -18 0
-14 -22 0
-14 -26 0
-14 -30 0
-14 -34 0
-14 -38 0
-14 -42 0
-14 -46 0
-14 -50 0
-14 -54 0
-14 -58 0
-14 -62 0
-18 -34 0
-18 -38 0
-18 -42 0
-18 -46 0
-18 -50 0
-18 -54 0
-18 -58 0
-18 -62 0
-22 -34 0
-22 -38 0
-22 -42 0
-22 -46 0
-22 -50 0
-22 -54 0
-22 -58 0
-22 -62 0
-26 -34 0
-26 -38 0
-26 -42 0
-26 -46 0
-26 -50 0
-26 -54 0
-26 -58 0
-26 -62 0
-30 -34 0
-30 -38 0
-30 -42 0
-30 -46 0
-30 -50 0
-30 -54 0
-30 -58 0
-30 -62 0
-34 -50 0
-34 -54 0
-34 -58 0
-34 -62 0
-38 -50 0
-38 -54 0
-38 -58 0
-38 -62 0
-42 -50 0
-42 -54 0
-42 -58 0
-42 -62 0
-46 -50 0
-46 -54 0
-46 -58 0
-46 -62 0
-3 -19 0
-3 -23 0
-3 -27 0
-3 -31 0
-3 -35 0
-3 -39 0
-3 -43 0
-3 -47 0
-3 -51 0
-3 -55 0
-3 -59 0
-3 -63 0
-7 -19 0
-7 -23 0
-7 -27 0
-7 -31 0
-7 -35 0
-7 -39 0
-7 -43 0
-7 -47 0
-7 -51 0
-7 -55 0
-7 -59 0
-7 -63 0
-11 -19 0
-11 -23 0
-11 -27 0
-11 -31 0
-11 -35 0
-11 -39 0
-11 -43 0
-11 -47 0
-11 -51 0
-11 -55 0
-11 -59 0
-11 -63 0
-15 -19 0
-15 -23 0
-15 -27 0
-15 -31 0
-15 -35 0
-15 -39 0
-15 -43 0
-15 -47 0
-15 -51 0
-15 -55 0
-15 -59 0
-15 -63 0
-19 -35 0
-19 -39 0
-19 -43 0
-19 -47 0
-19 -51 0
-19 -55 0
-19 -59 0
-19 -63 0
-23 -35 0
-23 -39 0
-23 -43 0
-23 -47 0
-23 -51 0
-23 -55 0
-23 -59 0
-23 -63 0
-27 -35 0
-27 -39 0
-27 -43 0
-27 -47 0
-27 -51 0
-27 -55 0
-27 -59 0
-27 -63 0
-31 -35 0
-31 -39 0
-31 -43 0
-31 -47 0
-31 -51 0
-31 -55 0
-31 -59 0
-31 -63 0
-35 -51 0
-35 -55 0
-35 -59 0
-35 -63 0
-39 -51 0
-39 -55 0
-39 -59 0
-39 -63 0
-43 -51 0
-43 -55 0
-43 -59 0
-43 -63 0
-47 -51 0
-47 -55 0
-47 -59 0
-47 -63 0
-4 -20 0
-4 -24 0
-4 -28 0
-4 -32 0
-4 -36 0
-4 -40 0
-4 -44 0
-4 -48 0
-4 -52 0
-4 -56 0
-4 -60 0
-4 -64 0
-8 -20 0
-8 -24 0
-8 -28 0
-8 -32 0
-8 -36 0
-8 -40 0
-8 -44 0
-8 -48 0
-8 -52 0
-8 -56 0
-8 -60 0
-8 -64 0
-12 -20 0
-12 -24 0
-12 -28 0
-12 -32 0
-12 -36 0
-12 -40 0
-12 -44 0
-12 -48 0
-12 -52 0
-12 -56 0
-12 -60 0
-12 -64 0
-16 -20 0
-16 -24 0
-16 -28 0
-16 -32 0
-16 -36 0
-16 -40 0
-16 -44 0
-16 -48 0
-16 -52 0
-16 -56 0
-16 -60 0
-16 -64 0
-20 -36 0
-20 -40 0
-20 -44 0
-20 -48 0
-20 -52 0
-20 -56 0
-20 -60 0
-20 -64 0
-24 -36 0
-24 -40 0
-24 -44 0
-24 -48 0
-24 -52 0
-24 -56 0
-24 -60 0
-24 -64 0
-28 -36 0
-28 -40 0
-28 -44 0
-28 -48 0
-28 -52 0
-28 -56 0
-28 -60 0
-28 -64 0
-32 -36 0
-32 -40 0
-32 -44 0
-32 -48 0
-32 -52 0
-32 -56 0
-32 -60 0
-32 -64 0
-36 -52 0
-36 -56 0
-36 -60 0
-36 -64 0
-40 -52 0
-40 -56 0
-40 -60 0
-40 -64 0
-44 -52 0
-44 -56 0
-44 -60 0
-44 -64 0
-48 -52 0
-48 -56 0
-48 -60 0
-48 -64 0
-1 -17 0
-1 -18 0
-1 -19 0
-1 -20 0
-1 -33 0
-1 -34 0
-1 -35 0
-1 -36 0
-1 -49 0
-1 -50 0
-1 -51 0
-1 -52 0
-2 -17 0
-2 -18 0
-2 -19 0
-2 -20 0
-2 -33 0
-2 -34 0
-2 -35 0
-2 -36 0
-2 -49 0
-2 -50 0
-2 -51 0
-2 -52 0
-3 -17 0
-3 -18 0
-3 -19 0
-3 -20 0
-3 -33 0
-3 -34 0
-3 -35 0
-3 -36 0
-3 -49 0
-3 -50 0
-3 -51 0
-3 -52 0
-4 -17 0
-4 -18 0
-4 -19 0
-4 -20 0
-4 -33 0
-4 -34 0
-4 -35 0
-4 -36 0
-4 -49 0
-4 -50 0
-4 -51 0
-4 -52 0
-17 -33 0
-17 -34 0
-17 -35 0
-17 -36 0
-17 -49 0
-17 -50 0
-17 -51 0
-17 -52 0
-18 -33 0
-18 -34 0
-18 -35 0
-18 -36 0
-18 -49 0
-18 -50 0
-18 -51 0
-18 -52 0
-19 -33 0
-19 -34 0
-19 -35 0
-19 -36 0
-19 -49 0
-19 -50 0
-19 -51 0
-19 -52 0
-20 -33 0
-20 -34 0
-20 -35 0
-20 -36 0
-20 -49 0
-20 -50 0
-20 -51 0
-20 -52 0
-33 -49 0
-33 -50 0
-33 -51 0
-33 -52 0
-34 -49 0
-34 -50 0
-34 -51 0
-34 -52 0
-35 -49 0
-35 -50 0
-35 -51 0
-35 -52 0
-36 -49 0
-36 -50 0
-36 -51 0
-36 -52 0
-5 -21 0
-5 -22 0
-5 -23 0
-5 -24 0
-5 -37 0
-5 -38 0
-5 -39 0
-5 -40 0
-5 -53 0
-5 -54 0
-5 -55 0
-5 -56 0
-6 -21 0
-6 -22 0
-6 -23 0
-6 -24 0
-6 -37 0
-6 -38 0
-6 -39 0
-6 -40 0
-6 -53 0
-6 -54 0
-6 -55 0
-6 -56 0
-7 -21 0
-7 -22 0
-7 -23 0
-7 -24 0
-7 -37 0
-7 -38 0
-7 -39 0
-7 -40 0
-7 -53 0
-7 -54 0
-7 -55 0
-7 -56 0
-8 -21 0
-8 -22 0
-8 -23 0
-8 -24 0
-8 -37 0
-8 -38 0
-8 -39 0
-8 -40 0
-8 -53 0
-8 -54 0
-8 -55 0
-8 -56 0
-21 -37 0
-21 -38 0
-21 -39 0
-21 -40 0
-21 -53 0
-21 -54 0
-21 -55 0
-21 -56 0
-22 -37 0
-22 -38 0
-22 -39 0
-22 -40 0
-22 -53 0
-22 -54 0
-22 -55 0
-22 -56 0
-23 -37 0
-23 -38 0
-23 -39 0
-23 -40 0
-23 -53 0
-23 -54 0
-23 -55 0
-23 -56 0
-24 -37 0
-24 -38 0
-24 -39 0
-24 -40 0
-24 -53 0
-24 -54 0
-24 -55 0
-24 -56 0
-37 -53 0
-37 -54 0
-37 -55 0
-37 -56 0
-38 -53 0
-38 -54 0
-38 -55 0
-38 -56 0
-39 -53 0
-39 -54 0
-39 -55 0
-39 -56 0
-40 -53 0
-40 -54 0
-40 -55 0
-40 -56 0
-9 -25 0
-9 -26 0
-9 -27 0
-9 -28 0
-9 -41 0
-9 -42 0
-9 -43 0
-9 -44 0
-9 -57 0
-9 -58 0
-9 -59 0
-9 -60 0
-10 -25 0
-10 -26 0
-10 -27 0
-10 -28 0
-10 -41 0
-10 -42 0
-10 -43 0
-10 -44 0
-10 -57 0
-10 -58 0
-10 -59 0
-10 -60 0
-11 -25 0
-11 -26 0
-11 -27 0
-11 -28 0
-11 -41 0
-11 -42 0
-11 -43 0
-11 -44 0
-11 -57 0
-11 -58 0
-11 -59 0
-11 -60 0
-12 -25 0
-12 -26 0
-12 -27 0
-12 -28 0
-12 -41 0
-12 -42 0
-12 -43 0
-12 -44 0
-12 -57 0
-12 -58 0
-12 -59 0
-12 -60 0
-25 -41 0
-25 -42 0
-25 -43 0
-25 -44 0
-25 -57 0
-25 -58 0
-25 -59 0
-25 -60 0
-26 -41 0
-26 -42 0
-26 -43 0
-26 -44 0
-26 -57 0
-26 -58 0
-26 -59 0
-26 -60 0
-27 -41 0
-27 -42 0
-27 -43 0
-27 -44 0
-27 -57 0
-27 -58 0
-27 -59 0
-27 -60 0
-28 -41 0
-28 -42 0
-28 -43 0
-28 -44 0
-28 -57 0
-28 -58 0
-28 -59 0
-28 -60 0
-41 -57 0
-41 -58 0
-41 -59 0
-41 -60 0
-42 -57 0
-42 -58 0
-42 -59 0
-42 -60 0
-43 -57 0
-43 -58 0
-43 -59 0
-43 -60 0
-44 -57 0
-44 -58 0
-44 -59 0
-44 -60 0
-13 -29 0
-13 -30 0
-13 -31 0
-13 -32 0
-13 -45 0
-13 -46 0
-13 -47 0
-13 -48 0
-13 -61 0
-13 -62 0
-13 -63 0
-13 -64 0
-14 -29 0
-14 -30 0
-14 -31 0
-14 -32 0
-14 -45 0
-14 -46 0
-14 -47 0
-14 -48 0
-14 -61 0
-14 -62 0
-14 -63 0
-14 -64 0
-15 -29 0
-15 -30 0
-15 -31 0
-15 -32 0
-15 -45 0
-15 -46 0
-15 -47 0
-15 -48 0
-15 -61 0
-15 -62 0
-15 -63 0
-15 -64 0
-16 -29 0
-16 -30 0
-16 -31 0
-16 -32 0
-16 -45 0
-16 -46 0
-16 -47 0
-16 -48 0
-16 -61 0
-16 -62 0
-16 -63 0
-16 -64 0
-29 -45 0
-29 -46 0
-29 -47 0
-29 -48 0
-29 -61 0
-29 -62 0
-29 -63 0
-29 -64 0
-30 -45 0
-30 -46 0
-30 -47 0
-30 -48 0
-30 -61 0
-30 -62 0
-30 -63 0
-30 -64 0
-31 -45 0
-31 -46 0
-31 -47 0
-31 -48 0
-31 -61 0
-31 -62 0
-31 -63 0
-31 -64 0
-32 -45 0
-32 -46 0
-32 -47 0
-32 -48 0
-32 -61 0
-32 -62 0
-32 -63 0
-32 -64 0
-45 -61 0
-45 -62 0
-45 -63 0
-45 -64 0
-46 -61 0
-46 -62 0
-46 -63 0
-46 -64 0
-47 -61 0
-47 -62 0
-47 -63 0
-47 -64 0
-48 -61 0
-48 -62 0
-48 -63 0
-48 -64 0
-1 -17 0
-1 -22 0
-1 -27 0
-1 -32 0
-1 -33 0
-1 -38 0
-1 -43 0
-1 -48 0
-1 -49 0
-1 -54 0
-1 -59 0
-1 -64 0
-2 -18 0
-2 -23 0
-2 -28 0
-2 -34 0
-2 -39 0
-2 -44 0
-2 -50 0
-2 -55 0
-2 -60 0
-3 -19 0
-3 -24 0
-3 -35 0
-3 -40 0
-3 -51 0
-3 -56 0
-4 -20 0
-4 -36 0
-4 -52 0
-17 -33 0
-17 -38 0
-17 -43 0
-17 -48 0
-17 -49 0
-17 -54 0
-17 -59 0
-17 -64 0
-18 -34 0
-18 -39 0
-18 -44 0
-18 -50 0
-18 -55 0
-18 -60 0
-19 -35 0
-19 -40 0
-19 -51 0
-19 -56 0
-20 -36 0
-20 -52 0
-33 -49 0
-33 -54 0
-33 -59 0
-33 -64 0
-34 -50 0
-34 -55 0
-34 -60 0
-35 -51 0
-35 -56 0
-36 -52 0
-5 -21 0
-5 -26 0
-5 -31 0
-5 -37 0
-5 -42 0
-5 -47 0
-5 -53 0
-5 -58 0
-5 -63 0
-6 -17 0
-6 -22 0
-6 -27 0
-6 -32 0
-6 -33 0
-6 -38 0
-6 -43 0
-6 -48 0
-6 -49 0
-6 -54 0
-6 -59 0
-6 -64 0
-7 -18 0
-7 -23 0
-7 -28 0
-7 -34 0
-7 -39 0
-7 -44 0
-7 -50 0
-7 -55 0
-7 -60 0
-8 -19 0
-8 -24 0
-8 -35 0
-8 -40 0
-8 -51 0
-8 -56 0
-21 -37 0
-21 -42 0
-21 -47 0
-21 -53 0
-21 -58 0
-21 -63 0
-22 -33 0
-22 -38 0
-22 -43 0
-22 -48 0
-22 -49 0
-22 -54 0
-22 -59 0
-22 -64 0
-23 -34 0
-23 -39 0
-23 -44 0
-23 -50 0
-23 -55 0
-23 -60 0
-24 -35 0
-24 -40 0
-24 -51 0
-24 -56 0
-37 -53 0
-37 -58 0
-37 -63 0
-38 -49 0
-38 -54 0
-38 -59 0
-38 -64 0
-39 -50 0
-39 -55 0
-39 -60 0
-40 -51 0
-40 -56 0
-9 -25 0
-9 -30 0
-9 -41 0
-9 -46 0
-9 -57 0
-9 -62 0
-10 -21 0
-10 -26 0
-10 -31 0
-10 -37 0
-10 -42 0
-10 -47 0
-10 -53 0
-10 -58 0
-10 -63 0
-11 -17 0
-11 -22 0
-11 -27 0
-11 -32 0
-11 -33 0
-11 -38 0
-11 -43 0
-11 -48 0
-11 -49 0
-11 -54 0
-11 -59 0
-11 -64 0
-12 -18 0
-12 -23 0
-12 -28 0
-12 -34 0
-12 -39 0
-12 -44 0
-12 -50 0
-12 -55 0
-12 -60 0
-25 -41 0
-25 -46 0
-25 -57 0
-25 -62 0
-26 -37 0
-26 -42 0
-26 -47 0
-26 -53 0
-26 -58 0
-26 -63 0
-27 -33 0
-27 -38 0
-27 -43 0
-27 -48 0
-27 -49 0
-27 -54 0
-27 -59 0
-27 -64 0
-28 -34 0
-28 -39 0
-28 -44 0
-28 -50 0
-28 -55 0
-28 -60 0
-41 -57 0
-41 -62 0
-42 -53 0
-42 -58 0
-42 -63 0
-43 -49 0
-43 -54 0
-43 -59 0
-43 -64 0
-44 -50 0
-44 -55 0
-44 -60 0
-13 -29 0
-13 -45 0
-13 -61 0
-14 -25 0
-14 -30 0
-14 -41 0
-14 -46 0
-14 -57 0
-14 -62 0
-15 -21 0
-15 -26 0
-15 -31 0
-15 -37 0
-15 -42 0
-15 -47 0
-15 -53 0
-15 -58 0
-15 -63 0
-16 -17 0
-16 -22 0
-16 -27 0
-16 -32 0
-16 -33 0
-16 -38 0
-16 -43 0
-16 -48 0
-16 -49 0
-16 -54 0
-16 -59 0
-16 -64 0
-29 -45 0
-29 -61 0
-30 -41 0
-30 -46 0
-30 -57 0
-30 -62 0
-31 -37 0
-31 -42 0
-31 -47 0
-31 -53 0
-31 -58 0
-31 -63 0
-32 -33 0
-32 -38 0
-32 -43 0
-32 -48 0
-32 -49 0
-32 -54 0
-32 -59 0
-32 -64 0
-45 -61 0
-46 -57 0
-46 -62 0
-47 -53 0
-47 -58 0
-47 -63 0
-48 -49 0
-48 -54 0
-48 -59 0
-48 -64 0
